
%FILE DATA:	Soccer Computational Problem for MiniZinc Models	%
%AUTHOR:	Jack Wall	%
%CONTACT:  	116397063@umail.ucc.ie			%
%LAST UPDATE:	03/03/2020, 12:08:58						%
%DESCRIPTION: 	48 games played with 8 games left				%


n=8; %number of teams

%Games to play
games=[|1,3|3,6|4,5|5,2|2,6|2,8|1,7|6,3|];

%Initial points
iPoints=[22,13,10,15,13,18,18,22];

%POSITION CONSTRAINTS
% [|teamID, operator, position|...]
% operators index:
%  1 for =  operator
%  2 for >  operator
%  3 for >= operator
%  4 for <  operator
%  5 for <= operator
positionConstraints=[|6,5,1|8,2,1|1,2,2|7,1,4|];